c User generated cnf file
p cnf 9 31
6 2 -8 0 
9 1 -2 0 
7 -6 9 0 
1 -4 6 0 
3 -6 7 0 
3 -6 4 0 
2 9 -7 0 
8 8 -3 0 
2 3 -9 0 
3 -2 2 0 
9 -4 4 0 
4 -7 8 0 
4 9 -8 0 
2 -3 6 0 
7 1 -5 0 
7 8 -8 0 
9 -6 8 0 
1 7 -5 0 
8 -4 3 0 
9 -1 2 0 
1 4 -3 0 
9 -1 8 0 
3 -5 9 0 
1 -5 7 0 
6 -9 2 0 
2 4 -4 0 
6 3 -5 0 
2 -6 4 0 
3 -4 8 0 
4 8 -8 0 
2 4 -4 0 
